#######  Datos del problema.
set M := 1 2 3 4 5 6;         # {i}   CLIENTES
set N := 1 2 3 4 5 6;         # {j}   DEPOSITOS
  
param c :  1 2 3 4 5 6 :=
               1 -	2	3	4	1	11
               2 9	-	7	6	0	5
               3 8	2	-	4	9	8
               4 2	1	3	-	4	6
               5 1	6	2	9	-	3
               6 7	4	6	12	7	- ;
                

                

      
      


      